p cnf 135 459
-1 2 -3 0
1 -2 -3 0
-1 -2 3 0
1 2 3 0
3 -4 0
-3 -4 0
-8 6 0
-8 7 0
-6 -7 8 0
10 8 0
10 9 0
-8 -9 -10 0
-5 -10 -11 0
5 10 -11 0
-5 10 11 0
5 -10 11 0
-13 -11 0
-13 -12 0
11 12 13 0
15 -14 0
15 1 0
14 -1 -15 0
16 2 0
16 -1 0
-2 1 -16 0
-15 -16 -17 0
15 16 -17 0
-15 16 17 0
15 -16 17 0
-18 -17 0
-18 -13 0
17 13 18 0
-19 -13 0
-19 18 0
13 -18 19 0
-20 14 0
-20 -12 0
-14 12 20 0
21 9 -22 0
-21 -9 -22 0
21 -9 22 0
-21 9 22 0
20 22 -23 0
-20 -22 -23 0
20 -22 23 0
-20 22 23 0
-7 25 -26 0
7 -25 -26 0
-7 -25 26 0
7 25 26 0
27 24 0
27 26 0
-24 -26 -27 0
3 -27 -28 0
-3 27 -28 0
3 27 28 0
-3 -27 28 0
28 -2 -29 0
-28 2 -29 0
28 2 29 0
-28 -2 29 0
30 29 0
30 -26 0
-29 26 -30 0
-31 -23 0
-31 30 0
23 -30 31 0
-32 19 0
-32 -31 0
-19 31 32 0
33 -8 0
33 -2 0
8 2 -33 0
-34 -15 0
-34 -33 0
15 33 34 0
-32 -34 -35 0
32 34 -35 0
-32 34 35 0
32 -34 35 0
-36 -10 0
-36 -14 0
10 14 36 0
-35 36 -37 0
35 -36 -37 0
-35 -36 37 0
35 36 37 0
38 -4 0
38 -37 0
4 37 -38 0
40 -14 0
40 -2 0
14 2 -40 0
41 39 0
41 -40 0
-39 40 -41 0
-41 6 -42 0
41 -6 -42 0
-41 -6 42 0
41 6 42 0
-44 43 0
-44 39 0
-43 -39 44 0
16 44 -45 0
-16 -44 -45 0
16 -44 45 0
-16 44 45 0
-45 26 -46 0
45 -26 -46 0
-45 -26 46 0
45 26 46 0
48 47 0
48 -1 0
-47 1 -48 0
-49 -46 0
-49 48 0
46 -48 49 0
-50 42 0
-50 49 0
-42 -49 50 0
52 14 0
52 21 0
-14 -21 -52 0
53 51 0
53 52 0
-51 -52 -53 0
-40 54 -55 0
40 -54 -55 0
-40 -54 55 0
40 54 55 0
56 -43 0
56 55 0
43 -55 -56 0
-56 2 -57 0
56 -2 -57 0
-56 -2 57 0
56 2 57 0
27 -57 -58 0
-27 57 -58 0
27 57 58 0
-27 -57 58 0
59 3 0
59 -9 0
-3 9 -59 0
60 58 0
60 59 0
-58 -59 -60 0
61 -6 0
61 11 0
6 -11 -61 0
62 7 0
62 -43 0
-7 43 -62 0
63 3 0
63 62 0
-3 -62 -63 0
64 61 0
64 -63 0
-61 63 -64 0
65 -60 0
65 -64 0
60 64 -65 0
66 53 0
66 65 0
-53 -65 -66 0
67 50 0
67 -66 0
-50 66 -67 0
-68 6 0
-68 -39 0
-6 39 68 0
-44 68 -69 0
44 -68 -69 0
-44 -68 69 0
44 68 69 0
70 69 0
70 -41 0
-69 41 -70 0
-71 -70 0
-71 -5 0
70 5 71 0
72 -33 0
72 62 0
33 -62 -72 0
-71 -72 -73 0
71 72 -73 0
-71 72 73 0
71 -72 73 0
6 24 -74 0
-6 -24 -74 0
6 -24 74 0
-6 24 74 0
74 1 -75 0
-74 -1 -75 0
74 -1 75 0
-74 1 75 0
-76 73 0
-76 -75 0
-73 75 76 0
-77 2 0
-77 27 0
-2 -27 77 0
44 -11 -78 0
-44 11 -78 0
44 11 78 0
-44 -11 78 0
-79 78 0
-79 20 0
-78 -20 79 0
-80 -77 0
-80 -79 0
77 79 80 0
81 43 0
81 -23 0
-43 23 -81 0
-82 81 0
-82 -45 0
-81 45 82 0
83 45 0
83 -78 0
-45 78 -83 0
84 82 0
84 83 0
-82 -83 -84 0
-85 80 0
-85 84 0
-80 -84 85 0
28 86 0
-28 86 0
86 -20 -87 0
-86 20 -87 0
86 20 87 0
-86 -20 87 0
2 9 -88 0
-2 -9 -88 0
2 -9 88 0
-2 9 88 0
-52 88 -89 0
52 -88 -89 0
-52 -88 89 0
52 88 89 0
-90 -89 0
-90 2 0
89 -2 90 0
27 90 -91 0
-27 -90 -91 0
27 -90 91 0
-27 90 91 0
87 -91 -92 0
-87 91 -92 0
87 91 92 0
-87 -91 92 0
-93 -85 0
-93 -92 0
85 92 93 0
94 7 0
94 -40 0
-7 40 -94 0
-94 23 -95 0
94 -23 -95 0
-94 -23 95 0
94 23 95 0
-22 -5 -96 0
22 5 -96 0
-22 5 96 0
22 -5 96 0
97 14 0
97 8 0
-14 -8 -97 0
96 -97 -98 0
-96 97 -98 0
96 97 98 0
-96 -97 98 0
99 2 0
99 -2 0
26 -99 -100 0
-26 99 -100 0
26 99 100 0
-26 -99 100 0
-101 98 0
-101 100 0
-98 -100 101 0
-102 -95 0
-102 -101 0
95 101 102 0
93 102 -103 0
-93 -102 -103 0
93 -102 103 0
-93 102 103 0
104 -76 0
104 -103 0
76 103 -104 0
67 -104 -105 0
-67 104 -105 0
67 104 105 0
-67 -104 105 0
88 -25 -106 0
-88 25 -106 0
88 25 106 0
-88 -25 106 0
-107 54 0
-107 47 0
-54 -47 107 0
41 107 -108 0
-41 -107 -108 0
41 -107 108 0
-41 107 108 0
-108 47 -109 0
108 -47 -109 0
-108 -47 109 0
108 47 109 0
-110 106 0
-110 109 0
-106 -109 110 0
-111 2 0
-111 23 0
-2 -23 111 0
112 52 0
112 -88 0
-52 88 -112 0
-112 55 -113 0
112 -55 -113 0
-112 -55 113 0
112 55 113 0
-78 -10 -114 0
78 10 -114 0
-78 10 114 0
78 -10 114 0
-115 -14 0
-115 -47 0
14 47 115 0
-39 115 -116 0
39 -115 -116 0
-39 -115 116 0
39 115 116 0
117 114 0
117 -116 0
-114 116 -117 0
113 117 -118 0
-113 -117 -118 0
113 -117 118 0
-113 117 118 0
119 -24 0
119 -108 0
24 108 -119 0
120 -26 0
120 -1 0
26 1 -120 0
-121 -119 0
-121 -120 0
119 120 121 0
78 -8 -122 0
-78 8 -122 0
78 8 122 0
-78 -8 122 0
123 -122 0
123 -20 0
122 20 -123 0
41 -21 -124 0
-41 21 -124 0
41 21 124 0
-41 -21 124 0
125 -123 0
125 124 0
123 -124 -125 0
-126 121 0
-126 -125 0
-121 125 126 0
-127 14 0
-127 -99 0
-14 99 127 0
128 126 0
128 127 0
-126 -127 -128 0
-118 -128 -129 0
118 128 -129 0
-118 128 129 0
118 -128 129 0
130 -111 0
130 -129 0
111 129 -130 0
-131 22 0
-131 -16 0
-22 16 131 0
-130 131 -132 0
130 -131 -132 0
-130 -131 132 0
130 131 132 0
110 132 -133 0
-110 -132 -133 0
110 -132 133 0
-110 132 133 0
134 -105 0
134 133 0
105 -133 -134 0
135 38 0
135 -134 0
-38 134 -135 0
-24 123 -132 -130 0
113 91 -132 -3 71 0
-50 31 108 -13 -128 -14 0
27 -98 -91 -101 0
116 -3 -95 0
-8 -128 55 0
123 -129 -26 41 0
87 1 0
9 109 -135 -29 0
-5 -12 -84 0
47 -129 -98 63 0
-83 5 -35 37 -62 0
87 120 -36 -33 0
-120 25 -4 -54 121 0
-82 80 133 78 55 0
53 -14 -61 0
37 5 0
-31 126 -113 122 3 97 0
-132 71 115 87 0
115 -128 -16 91 -132 0
21 4 -3 -27 53 -36 0
-34 21 123 -9 1 0
70 -44 0
7 85 14 0
-11 18 -48 134 -94 0
34 -35 -69 0
21 -13 24 81 65 0
84 -99 -113 -62 130 125 0
-60 -84 -59 -18 -55 0
-134 -65 0
-122 -100 128 -2 -5 0
122 127 -11 -77 0
47 -5 112 -115 -106 0
-32 130 -91 0
26 123 0
35 -7 17 -111 0
96 41 105 7 0
76 85 28 101 -117 0
-24 -3 11 23 118 125 0
-27 64 -37 109 -69 0
5 -92 70 -74 111 0
-25 -109 0
-112 67 -70 91 19 10 0
131 -57 0
-33 -31 84 -4 0
14 -59 0
103 83 -38 26 15 34 0
91 -112 -22 0
-33 -105 -42 0
27 -92 -109 -31 66 0
-123 26 -74 -13 12 41 0
63 -127 -133 24 0
-88 114 0
105 127 63 26 -13 0
97 59 46 0
118 77 -73 11 -45 0
112 30 56 102 71 21 0
59 -124 116 0
58 -36 0
16 2 124 -86 10 -7 0
135 0
